(declare-const a Real)
(declare-const b Real)
(declare-const c Real)
(assert (= (+ a b c) 1))
(assert (> a 0))
(assert (> b 0))
(assert (> c 0))
(assert (not (<= (+ -3 (* (pow a -1) (+ a b c)) (* (pow b -1) (+ a b c)) (* (pow c -1) (+ a b c)) (* -4 (pow a -1) (pow c -1) (pow (* b (+ (pow a 3) (pow c 3))) (/ 1 2)))) 0)))
(check-sat)
(get-model)
(exit)